
Gurobi 10.0.3 (linux64, gurobi_cl) logging started Thu Nov  2 11:35:03 2023

Set parameter Username
Set parameter TimeLimit to value 3600
Set parameter LogFile to value "RCPSP_626.log"
Set parameter Threads to value 32
Academic license - for non-commercial use only - expires 2024-10-30
Using license file /home/jrivera6/gurobi-licenses/v1003/compute-0-34/gurobi.lic

Gurobi Optimizer version 10.0.3 build v10.0.3rc0 (linux64)
Copyright (c) 2023, Gurobi Optimization, LLC

Read MPS format model from file RCPSP_626.mps
Reading time = 0.03 seconds
RCPSP_626: 19624 rows, 7750 columns, 71898 nonzeros

CPU model: Intel(R) Xeon(R) Gold 6130 CPU @ 2.10GHz, instruction set [SSE2|AVX|AVX2|AVX512]
Thread count: 32 physical cores, 32 logical processors, using up to 32 threads

Optimize a model with 19624 rows, 7750 columns and 71898 nonzeros
Model fingerprint: 0x4440c666
Variable types: 62 continuous, 7688 integer (7688 binary)
Coefficient statistics:
  Matrix range     [1e+00, 3e+02]
  Objective range  [1e+00, 1e+00]
  Bounds range     [1e+00, 1e+00]
  RHS range        [1e+00, 3e+02]
Presolve removed 6784 rows and 2305 columns
Presolve time: 2.42s
Presolved: 12840 rows, 5445 columns, 49474 nonzeros
Variable types: 61 continuous, 5384 integer (5384 binary)

Root relaxation: objective 7.600000e+01, 1891 iterations, 0.08 seconds (0.03 work units)

    Nodes    |    Current Node    |     Objective Bounds      |     Work
 Expl Unexpl |  Obj  Depth IntInf | Incumbent    BestBd   Gap | It/Node Time

     0     0   76.00000    0   20          -   76.00000      -     -    2s
     0     0   76.00000    0  155          -   76.00000      -     -    6s
     0     0   76.00000    0  155          -   76.00000      -     -    6s
H    0     0                      76.0000000   76.00000  0.00%     -    8s
     0     0   76.00000    0    8   76.00000   76.00000  0.00%     -    8s

Cutting planes:
  Gomory: 18
  Lift-and-project: 10
  Cover: 6
  Implied bound: 20
  MIR: 201
  StrongCG: 1
  RLT: 150
  Relax-and-lift: 7

Explored 1 nodes (6579 simplex iterations) in 8.11 seconds (2.52 work units)
Thread count was 32 (of 32 available processors)

Solution count 1: 76 

Optimal solution found (tolerance 1.00e-04)
Best objective 7.600000000000e+01, best bound 7.600000000000e+01, gap 0.0000%

Wrote result file 'RCPSP_626.sol'

